Optimal - objective value 3854.00000000
      7 x_0_8                   1                      29
     16 x_1_2                   1                       0
     43 x_2_14                  1                    -167
     49 x_3_5                   1                     609
     72 x_4_13                  1                       0
     85 x_5_11                  1                       0
     91 x_6_1                   1                       0
    108 x_7_3                   1                     217
    127 x_8_7                   1                    -114
    141 x_9_6                   1                     -53
    150 x_10_0                  1                     325
    174 x_11_9                  1                     248
    194 x_12_15                 1                       0
    205 x_13_10                 1                      83
    222 x_14_12                 1                     432
    229 x_15_4                  1                       0
    240 u_1                     8                       0
    241 u_2                     9                       0
    242 u_3                     3                       0
    243 u_4                    13                       0
    244 u_5                     4                       0
    245 u_6                     7                       0
    246 u_7                     2                       0
    247 u_8                     1                       0
    248 u_9                     6                       0
    249 u_10                   15                       0
    250 u_11                    5                       0
    251 u_12                   11                       0
    252 u_13                   14                       0
    253 u_14                   10                       0
    254 u_15                   12                       0
